c CNF file corresponding to a (partial) station packing problem.
p cnf 1206 229
1 2 3 4 5 6 7 8 9 10 11 12 13 14 0
-1 -2 0
-1 -3 0
-1 -4 0
-1 -5 0
-1 -6 0
-1 -7 0
-1 -8 0
-1 -9 0
-1 -10 0
-1 -11 0
-1 -12 0
-1 -13 0
-1 -14 0
-2 -3 0
-2 -4 0
-2 -5 0
-2 -6 0
-2 -7 0
-2 -8 0
-2 -9 0
-2 -10 0
-2 -11 0
-2 -12 0
-2 -13 0
-2 -14 0
-3 -4 0
-3 -5 0
-3 -6 0
-3 -7 0
-3 -8 0
-3 -9 0
-3 -10 0
-3 -11 0
-3 -12 0
-3 -13 0
-3 -14 0
-4 -5 0
-4 -6 0
-4 -7 0
-4 -8 0
-4 -9 0
-4 -10 0
-4 -11 0
-4 -12 0
-4 -13 0
-4 -14 0
-5 -6 0
-5 -7 0
-5 -8 0
-5 -9 0
-5 -10 0
-5 -11 0
-5 -12 0
-5 -13 0
-5 -14 0
-6 -7 0
-6 -8 0
-6 -9 0
-6 -10 0
-6 -11 0
-6 -12 0
-6 -13 0
-6 -14 0
-7 -8 0
-7 -9 0
-7 -10 0
-7 -11 0
-7 -12 0
-7 -13 0
-7 -14 0
-8 -9 0
-8 -10 0
-8 -11 0
-8 -12 0
-8 -13 0
-8 -14 0
-9 -10 0
-9 -11 0
-9 -12 0
-9 -13 0
-9 -14 0
-10 -11 0
-10 -12 0
-10 -13 0
-10 -14 0
-11 -12 0
-11 -13 0
-11 -14 0
-12 -13 0
-12 -14 0
-13 -14 0
1190 1191 1192 1193 1194 1195 1196 1197 1198 1199 1200 1201 1202 1203 1204 1205 1206 0
-1190 -1191 0
-1190 -1192 0
-1190 -1193 0
-1190 -1194 0
-1190 -1195 0
-1190 -1196 0
-1190 -1197 0
-1190 -1198 0
-1190 -1199 0
-1190 -1200 0
-1190 -1201 0
-1190 -1202 0
-1190 -1203 0
-1190 -1204 0
-1190 -1205 0
-1190 -1206 0
-1191 -1192 0
-1191 -1193 0
-1191 -1194 0
-1191 -1195 0
-1191 -1196 0
-1191 -1197 0
-1191 -1198 0
-1191 -1199 0
-1191 -1200 0
-1191 -1201 0
-1191 -1202 0
-1191 -1203 0
-1191 -1204 0
-1191 -1205 0
-1191 -1206 0
-1192 -1193 0
-1192 -1194 0
-1192 -1195 0
-1192 -1196 0
-1192 -1197 0
-1192 -1198 0
-1192 -1199 0
-1192 -1200 0
-1192 -1201 0
-1192 -1202 0
-1192 -1203 0
-1192 -1204 0
-1192 -1205 0
-1192 -1206 0
-1193 -1194 0
-1193 -1195 0
-1193 -1196 0
-1193 -1197 0
-1193 -1198 0
-1193 -1199 0
-1193 -1200 0
-1193 -1201 0
-1193 -1202 0
-1193 -1203 0
-1193 -1204 0
-1193 -1205 0
-1193 -1206 0
-1194 -1195 0
-1194 -1196 0
-1194 -1197 0
-1194 -1198 0
-1194 -1199 0
-1194 -1200 0
-1194 -1201 0
-1194 -1202 0
-1194 -1203 0
-1194 -1204 0
-1194 -1205 0
-1194 -1206 0
-1195 -1196 0
-1195 -1197 0
-1195 -1198 0
-1195 -1199 0
-1195 -1200 0
-1195 -1201 0
-1195 -1202 0
-1195 -1203 0
-1195 -1204 0
-1195 -1205 0
-1195 -1206 0
-1196 -1197 0
-1196 -1198 0
-1196 -1199 0
-1196 -1200 0
-1196 -1201 0
-1196 -1202 0
-1196 -1203 0
-1196 -1204 0
-1196 -1205 0
-1196 -1206 0
-1197 -1198 0
-1197 -1199 0
-1197 -1200 0
-1197 -1201 0
-1197 -1202 0
-1197 -1203 0
-1197 -1204 0
-1197 -1205 0
-1197 -1206 0
-1198 -1199 0
-1198 -1200 0
-1198 -1201 0
-1198 -1202 0
-1198 -1203 0
-1198 -1204 0
-1198 -1205 0
-1198 -1206 0
-1199 -1200 0
-1199 -1201 0
-1199 -1202 0
-1199 -1203 0
-1199 -1204 0
-1199 -1205 0
-1199 -1206 0
-1200 -1201 0
-1200 -1202 0
-1200 -1203 0
-1200 -1204 0
-1200 -1205 0
-1200 -1206 0
-1201 -1202 0
-1201 -1203 0
-1201 -1204 0
-1201 -1205 0
-1201 -1206 0
-1202 -1203 0
-1202 -1204 0
-1202 -1205 0
-1202 -1206 0
-1203 -1204 0
-1203 -1205 0
-1203 -1206 0
-1204 -1205 0
-1204 -1206 0
-1205 -1206 0
